 VARIABLES = X,Y,Z,S11,S22,S33,S12,S13,S23
 ZONE, T="0.1000D+01" F=FEPOINT, I=   12 J=    2 ET=BRICK
   0.0000000000E+00   0.0000000000E+00   0.0000000000E+00   0.5000000007E+01   0.3422421553E-15   0.5548079847E-15   0.3095807764E-18   0.2163032462E-15   0.3046945602E-15
   0.1050000000E+01   0.0000000000E+00   0.1585598032E-16   0.5000000007E+01   0.8630931577E-15   0.3686134664E-15  -0.2124564538E-15  -0.2176152286E-17   0.1532037549E-15
   0.1050000000E+01   0.9850000000E+00   0.2011774718E-16   0.5000000007E+01   0.9090825823E-15   0.3050044522E-15  -0.2151091797E-15   0.1571539729E-15  -0.2368057920E-16
   0.0000000000E+00   0.9850000000E+00   0.2061085271E-16   0.5000000007E+01  -0.6666366449E-16  -0.1296495672E-15   0.1580908825E-15   0.1702419903E-15   0.2322374247E-15
   0.0000000000E+00   0.0000000000E+00   0.9850000000E+00   0.5000000007E+01  -0.3122910574E-15   0.2984129640E-15   0.5677396034E-16   0.9970472343E-16   0.1441991702E-15
   0.1050000000E+01   0.0000000000E+00   0.9850000000E+00   0.5000000007E+01   0.1376883593E-15   0.1122184458E-15  -0.1538760018E-15  -0.7707748432E-16   0.9034701781E-16
   0.1050000000E+01   0.9850000000E+00   0.9850000000E+00   0.5000000007E+01   0.1836777839E-15   0.4860943159E-16  -0.2076607476E-15   0.7384880057E-16  -0.1058399386E-15
   0.0000000000E+00   0.9850000000E+00   0.9850000000E+00   0.5000000007E+01  -0.5731671456E-15  -0.2380148563E-15   0.1915002251E-15   0.1086126189E-15   0.5944704415E-16
   0.2100000000E+01   0.0000000000E+00   0.1582152053E-16   0.5000000007E+01   0.4485470348E-15   0.8161661769E-16  -0.2661396753E-15   0.3205252941E-15   0.2966496565E-15
   0.2100000000E+01   0.9850000000E+00   0.4046572851E-16   0.5000000007E+01   0.8160206311E-15   0.3275455681E-15  -0.3896036317E-15   0.3613550726E-15  -0.1214709899E-16
   0.2100000000E+01   0.0000000000E+00   0.9850000000E+00   0.5000000007E+01  -0.4587516480E-15  -0.1747784029E-15  -0.3048206275E-15   0.2358699616E-15   0.2293429751E-15
   0.2100000000E+01   0.9850000000E+00   0.9850000000E+00   0.5000000007E+01  -0.2393077831E-15  -0.7687918406E-16  -0.5283590661E-15   0.1896750579E-15  -0.8971366565E-16
     1     2     3     4     5     6     7     8
     2     9    10     3     6    11    12     7
 VARIABLES = X,Y,Z,S11,S22,S33,S12,S13,S23
 ZONE, T="0.2000D+01" F=FEPOINT, I=   12 J=    2 ET=BRICK
   0.0000000000E+00   0.0000000000E+00   0.0000000000E+00   0.1000000001E+02   0.3127923272E-15   0.7849623740E-16   0.6643496464E-17  -0.1513123190E-15  -0.4479534019E-16
   0.1100000000E+01   0.0000000000E+00  -0.5794336264E-17   0.1000000001E+02  -0.1243866359E-15   0.8285331977E-17   0.1350466564E-15  -0.4249551270E-16  -0.4318322555E-16
   0.1100000000E+01   0.9700000000E+00  -0.9192445896E-17   0.1000000001E+02  -0.1488058648E-15  -0.4870168773E-16   0.8958343456E-16  -0.8081692539E-16  -0.1107862704E-16
   0.0000000000E+00   0.9700000000E+00   0.3390961151E-17   0.1000000001E+02   0.3127923272E-15   0.7849623740E-16  -0.4846890785E-16  -0.2674527146E-15  -0.2587853791E-16
   0.0000000000E+00   0.0000000000E+00   0.9700000000E+00   0.1000000001E+02   0.3127923272E-15   0.7849623740E-16  -0.1408409850E-17  -0.1543243505E-15  -0.1271543650E-15
   0.1100000000E+01   0.0000000000E+00   0.9700000000E+00   0.1000000001E+02  -0.2328044784E-16   0.8285331976E-17   0.7826381759E-16  -0.6136390379E-17  -0.9880031583E-16
   0.1100000000E+01   0.9700000000E+00   0.9700000000E+00   0.1000000001E+02  -0.4769967680E-16  -0.4870168773E-16   0.2256905347E-16  -0.1120845109E-15  -0.6050886807E-16
   0.0000000000E+00   0.9700000000E+00   0.9700000000E+00   0.1000000001E+02   0.3127923272E-15   0.7849623740E-16  -0.4421592352E-16  -0.2549030097E-15  -0.1161264210E-15
   0.2200000000E+01   0.0000000000E+00  -0.1664658071E-16   0.1000000001E+02  -0.7802023272E-15  -0.4455650789E-15  -0.8062687349E-16   0.2947380790E-16   0.1554084156E-15
   0.2200000000E+01   0.9700000000E+00  -0.5743650755E-17   0.1000000001E+02  -0.9624699279E-15  -0.8709219715E-15  -0.1111957339E-15  -0.1721611523E-15   0.2019544870E-15
   0.2200000000E+01   0.0000000000E+00   0.9700000000E+00   0.1000000001E+02  -0.7260196826E-15  -0.4455650789E-15  -0.5857522494E-16   0.1142720464E-15   0.6939867695E-16
   0.2200000000E+01   0.9700000000E+00   0.9700000000E+00   0.1000000001E+02  -0.9082872833E-15  -0.8709219714E-15  -0.1379624294E-15  -0.3994842725E-15   0.1434299710E-15
     1     2     3     4     5     6     7     8
     2     9    10     3     6    11    12     7
 VARIABLES = X,Y,Z,S11,S22,S33,S12,S13,S23
 ZONE, T="0.3000D+01" F=FEPOINT, I=   12 J=    2 ET=BRICK
   0.0000000000E+00   0.0000000000E+00   0.0000000000E+00   0.1500000002E+02  -0.1503620885E-15  -0.4498175711E-16   0.2107304044E-16   0.4016720438E-15  -0.2109857414E-15
   0.1150000000E+01   0.0000000000E+00   0.1405378980E-16   0.1500000002E+02  -0.7713729806E-15  -0.1023893065E-14  -0.2683483466E-16   0.8716744699E-16  -0.7030942190E-16
   0.1150000000E+01   0.9550000000E+00   0.1180587252E-16   0.1500000002E+02  -0.4825506260E-15  -0.8891337789E-15   0.8369890367E-16  -0.6080001563E-15   0.1186229396E-16
   0.0000000000E+00   0.9550000000E+00  -0.3777210933E-17   0.1500000002E+02   0.2449885635E-15  -0.2008200775E-15   0.4662734940E-16   0.6301033371E-16  -0.1480435917E-15
   0.0000000000E+00   0.0000000000E+00   0.9550000000E+00   0.1500000002E+02  -0.2587273776E-15  -0.2617123353E-15  -0.3004989740E-15   0.4034860360E-15  -0.3820603514E-15
   0.1150000000E+01   0.0000000000E+00   0.9550000000E+00   0.1500000002E+02  -0.6233432491E-15  -0.1078075710E-14  -0.5834007018E-15   0.8586237399E-16  -0.7172562993E-16
   0.1150000000E+01   0.9550000000E+00   0.9550000000E+00   0.1500000002E+02  -0.6305803575E-15  -0.1239375886E-14  -0.4731764608E-15  -0.6201857874E-15   0.3761647663E-16
   0.0000000000E+00   0.9550000000E+00   0.9550000000E+00   0.1500000002E+02  -0.4554956516E-15  -0.1009669582E-14  -0.2460254907E-15   0.1209936620E-15  -0.3561492861E-15
   0.2300000000E+01   0.0000000000E+00   0.2488434869E-16   0.1500000002E+02  -0.6484613164E-15  -0.1355108152E-14   0.4488559284E-17   0.3473824183E-15   0.1552392954E-15
   0.2300000000E+01   0.9550000000E+00   0.2549279051E-16   0.1500000002E+02  -0.4660949792E-15  -0.9297512592E-15   0.6578568712E-16  -0.1729695623E-15   0.2331412055E-15
   0.2300000000E+01   0.0000000000E+00   0.9550000000E+00   0.1500000002E+02  -0.2440365643E-15  -0.9506833997E-15  -0.3041259851E-15  -0.2544024268E-15   0.3486199964E-15
   0.2300000000E+01   0.9550000000E+00   0.9550000000E+00   0.1500000002E+02  -0.6167022710E-16  -0.5253265070E-15  -0.1985353297E-15  -0.1833844808E-15   0.4536922972E-15
     1     2     3     4     5     6     7     8
     2     9    10     3     6    11    12     7
